p cnf 239 1544
116 125 126 133 0
113 118 177 0
110 162 236 238 0
104 129 134 137 0
89 147 0
119 152 156 183 0
142 148 185 187 0
78 160 193 0
203 205 0
109 114 0
106 111 120 0
102 139 161 0
94 96 101 219 0
91 93 132 145 0
85 87 122 224 0
83 108 226 229 0
80 82 127 159 0
77 165 167 168 170 0
171 173 174 175 176 0
130 207 0
107 112 178 0
136 140 163 0
98 103 181 0
128 184 186 0
149 188 190 0
79 169 194 197 198 0
200 201 204 206 0
210 211 212 0
180 214 215 0
99 100 217 220 0
144 146 221 222 0
121 123 223 225 0
84 227 0
155 230 231 233 0
158 191 235 0
131 208 0
164 237 239 0
97 135 0
74 75 76 0
71 73 0
68 69 88 0
65 66 141 0
64 189 192 0
63 199 0
61 62 202 0
58 59 60 209 0
57 179 213 0
55 216 0
54 95 218 0
90 92 143 0
50 51 52 53 154 0
47 48 49 81 157 234 0
-129 -133 0
-46 -133 0
-89 -133 0
-45 -133 0
-46 -129 0
-89 -129 0
-45 -129 0
-46 -89 0
-45 -46 0
-45 -89 0
-43 -185 0
-185 -203 0
-56 -185 0
-106 -185 0
-43 -203 0
-43 -56 0
-43 -106 0
-56 -203 0
-106 -203 0
-56 -106 0
-101 -226 0
-101 -153 0
-41 -101 0
-77 -101 0
-153 -226 0
-41 -226 0
-77 -226 0
-41 -153 0
-77 -153 0
-41 -77 0
-40 -194 0
-76 -135 0
-133 -185 0
-101 -133 0
-101 -185 0
-43 -129 0
-129 -226 0
-129 -194 0
-43 -226 0
-43 -194 0
-194 -226 0
-46 -203 0
-46 -153 0
-40 -46 0
-153 -203 0
-40 -203 0
-40 -153 0
-56 -89 0
-41 -89 0
-89 -135 0
-41 -56 0
-56 -135 0
-41 -135 0
-45 -106 0
-45 -77 0
-45 -76 0
-77 -106 0
-76 -106 0
-76 -77 0
-116 -118 0
-116 -236 0
-116 -137 0
-72 -116 0
-118 -236 0
-118 -137 0
-72 -118 0
-137 -236 0
-72 -236 0
-72 -137 0
-145 -219 0
-87 -219 0
-83 -219 0
-82 -219 0
-87 -145 0
-83 -145 0
-82 -145 0
-83 -87 0
-82 -87 0
-82 -83 0
-38 -130 0
-37 -130 0
-107 -130 0
-103 -130 0
-36 -130 0
-67 -130 0
-37 -38 0
-38 -107 0
-38 -103 0
-36 -38 0
-38 -67 0
-37 -107 0
-37 -103 0
-36 -37 0
-37 -67 0
-103 -107 0
-36 -107 0
-67 -107 0
-36 -103 0
-67 -103 0
-36 -67 0
-34 -184 0
-34 -149 0
-34 -79 0
-34 -200 0
-34 -210 0
-34 -214 0
-149 -184 0
-79 -184 0
-184 -200 0
-184 -210 0
-184 -214 0
-79 -149 0
-149 -200 0
-149 -210 0
-149 -214 0
-79 -200 0
-79 -210 0
-79 -214 0
-200 -210 0
-200 -214 0
-210 -214 0
-31 -217 0
-31 -221 0
-31 -223 0
-31 -230 0
-31 -158 0
-29 -31 0
-217 -221 0
-217 -223 0
-217 -230 0
-158 -217 0
-29 -217 0
-221 -223 0
-221 -230 0
-158 -221 0
-29 -221 0
-223 -230 0
-158 -223 0
-29 -223 0
-158 -230 0
-29 -230 0
-29 -158 0
-44 -88 0
-28 -88 0
-88 -202 0
-60 -88 0
-28 -44 0
-44 -202 0
-44 -60 0
-28 -202 0
-28 -60 0
-60 -202 0
-57 -105 0
-55 -57 0
-57 -154 0
-49 -57 0
-55 -105 0
-105 -154 0
-49 -105 0
-55 -154 0
-49 -55 0
-49 -154 0
-116 -219 0
-116 -130 0
-34 -116 0
-31 -116 0
-88 -116 0
-57 -116 0
-130 -219 0
-34 -219 0
-31 -219 0
-88 -219 0
-57 -219 0
-34 -130 0
-31 -130 0
-88 -130 0
-57 -130 0
-31 -34 0
-34 -88 0
-34 -57 0
-31 -88 0
-31 -57 0
-57 -88 0
-118 -145 0
-38 -118 0
-118 -184 0
-118 -217 0
-44 -118 0
-105 -118 0
-38 -145 0
-145 -184 0
-145 -217 0
-44 -145 0
-105 -145 0
-38 -184 0
-38 -217 0
-38 -44 0
-38 -105 0
-184 -217 0
-44 -184 0
-105 -184 0
-44 -217 0
-105 -217 0
-44 -105 0
-87 -236 0
-37 -236 0
-149 -236 0
-221 -236 0
-28 -236 0
-55 -236 0
-37 -87 0
-87 -149 0
-87 -221 0
-28 -87 0
-55 -87 0
-37 -149 0
-37 -221 0
-28 -37 0
-37 -55 0
-149 -221 0
-28 -149 0
-55 -149 0
-28 -221 0
-55 -221 0
-28 -55 0
-83 -137 0
-107 -137 0
-79 -137 0
-137 -223 0
-83 -107 0
-79 -83 0
-83 -223 0
-79 -107 0
-107 -223 0
-79 -223 0
-72 -82 0
-72 -103 0
-72 -200 0
-72 -230 0
-82 -103 0
-82 -200 0
-82 -230 0
-103 -200 0
-103 -230 0
-200 -230 0
-36 -210 0
-36 -158 0
-36 -202 0
-36 -154 0
-158 -210 0
-202 -210 0
-154 -210 0
-158 -202 0
-154 -158 0
-154 -202 0
-67 -214 0
-29 -67 0
-60 -67 0
-49 -67 0
-29 -214 0
-60 -214 0
-49 -214 0
-29 -60 0
-29 -49 0
-49 -60 0
-134 -238 0
-27 -238 0
-26 -238 0
-25 -238 0
-152 -238 0
-27 -134 0
-26 -134 0
-25 -134 0
-134 -152 0
-26 -27 0
-25 -27 0
-27 -152 0
-25 -26 0
-26 -152 0
-25 -152 0
-23 -196 0
-196 -205 0
-114 -196 0
-120 -196 0
-139 -196 0
-23 -205 0
-23 -114 0
-23 -120 0
-23 -139 0
-114 -205 0
-120 -205 0
-139 -205 0
-114 -120 0
-114 -139 0
-120 -139 0
-108 -224 0
-224 -232 0
-127 -224 0
-165 -224 0
-171 -224 0
-108 -232 0
-108 -127 0
-108 -165 0
-108 -171 0
-127 -232 0
-165 -232 0
-171 -232 0
-127 -165 0
-127 -171 0
-165 -171 0
-163 -178 0
-98 -178 0
-98 -163 0
-115 -117 0
-115 -237 0
-75 -115 0
-73 -115 0
-117 -237 0
-75 -117 0
-73 -117 0
-75 -237 0
-73 -237 0
-73 -75 0
-143 -218 0
-86 -218 0
-53 -218 0
-81 -218 0
-86 -143 0
-53 -143 0
-81 -143 0
-53 -86 0
-81 -86 0
-53 -81 0
-196 -238 0
-224 -238 0
-196 -224 0
-23 -134 0
-108 -134 0
-134 -178 0
-115 -134 0
-134 -218 0
-23 -108 0
-23 -178 0
-23 -115 0
-23 -218 0
-108 -178 0
-108 -115 0
-108 -218 0
-115 -178 0
-178 -218 0
-115 -218 0
-27 -205 0
-27 -232 0
-27 -163 0
-27 -117 0
-27 -143 0
-205 -232 0
-163 -205 0
-117 -205 0
-143 -205 0
-163 -232 0
-117 -232 0
-143 -232 0
-117 -163 0
-143 -163 0
-117 -143 0
-26 -114 0
-26 -127 0
-26 -98 0
-26 -237 0
-26 -86 0
-114 -127 0
-98 -114 0
-114 -237 0
-86 -114 0
-98 -127 0
-127 -237 0
-86 -127 0
-98 -237 0
-86 -98 0
-86 -237 0
-25 -120 0
-25 -165 0
-25 -75 0
-25 -53 0
-120 -165 0
-75 -120 0
-53 -120 0
-75 -165 0
-53 -165 0
-53 -75 0
-139 -152 0
-152 -171 0
-73 -152 0
-81 -152 0
-139 -171 0
-73 -139 0
-81 -139 0
-73 -171 0
-81 -171 0
-73 -81 0
-113 -126 0
-110 -126 0
-22 -126 0
-126 -156 0
-110 -113 0
-22 -113 0
-113 -156 0
-22 -110 0
-110 -156 0
-22 -156 0
-93 -96 0
-96 -122 0
-96 -167 0
-96 -173 0
-93 -122 0
-93 -167 0
-93 -173 0
-122 -167 0
-122 -173 0
-167 -173 0
-21 -207 0
-20 -207 0
-140 -207 0
-181 -207 0
-70 -207 0
-19 -207 0
-20 -21 0
-21 -140 0
-21 -181 0
-21 -70 0
-19 -21 0
-20 -140 0
-20 -181 0
-20 -70 0
-19 -20 0
-140 -181 0
-70 -140 0
-19 -140 0
-70 -181 0
-19 -181 0
-19 -70 0
-18 -128 0
-18 -188 0
-17 -18 0
-18 -201 0
-18 -211 0
-18 -180 0
-128 -188 0
-17 -128 0
-128 -201 0
-128 -211 0
-128 -180 0
-17 -188 0
-188 -201 0
-188 -211 0
-180 -188 0
-17 -201 0
-17 -211 0
-17 -180 0
-201 -211 0
-180 -201 0
-180 -211 0
-15 -99 0
-15 -146 0
-15 -84 0
-15 -231 0
-15 -235 0
-13 -15 0
-99 -146 0
-84 -99 0
-99 -231 0
-99 -235 0
-13 -99 0
-84 -146 0
-146 -231 0
-146 -235 0
-13 -146 0
-84 -231 0
-84 -235 0
-13 -84 0
-231 -235 0
-13 -231 0
-13 -235 0
-12 -131 0
-11 -12 0
-10 -12 0
-12 -239 0
-11 -131 0
-10 -131 0
-131 -239 0
-10 -11 0
-11 -239 0
-10 -239 0
-24 -69 0
-69 -151 0
-69 -189 0
-69 -195 0
-24 -151 0
-24 -189 0
-24 -195 0
-151 -189 0
-151 -195 0
-189 -195 0
-96 -126 0
-126 -207 0
-18 -126 0
-15 -126 0
-12 -126 0
-69 -126 0
-96 -207 0
-18 -96 0
-15 -96 0
-12 -96 0
-69 -96 0
-18 -207 0
-15 -207 0
-12 -207 0
-69 -207 0
-15 -18 0
-12 -18 0
-18 -69 0
-12 -15 0
-15 -69 0
-12 -69 0
-93 -113 0
-21 -113 0
-113 -128 0
-99 -113 0
-113 -131 0
-24 -113 0
-21 -93 0
-93 -128 0
-93 -99 0
-93 -131 0
-24 -93 0
-21 -128 0
-21 -99 0
-21 -131 0
-21 -24 0
-99 -128 0
-128 -131 0
-24 -128 0
-99 -131 0
-24 -99 0
-24 -131 0
-110 -122 0
-20 -110 0
-110 -188 0
-110 -146 0
-11 -110 0
-110 -151 0
-20 -122 0
-122 -188 0
-122 -146 0
-11 -122 0
-122 -151 0
-20 -188 0
-20 -146 0
-11 -20 0
-20 -151 0
-146 -188 0
-11 -188 0
-151 -188 0
-11 -146 0
-146 -151 0
-11 -151 0
-17 -140 0
-84 -140 0
-10 -140 0
-140 -189 0
-17 -84 0
-10 -17 0
-17 -189 0
-10 -84 0
-84 -189 0
-10 -189 0
-181 -201 0
-181 -231 0
-181 -239 0
-181 -195 0
-201 -231 0
-201 -239 0
-195 -201 0
-231 -239 0
-195 -231 0
-195 -239 0
-22 -167 0
-22 -70 0
-22 -211 0
-22 -235 0
-70 -167 0
-167 -211 0
-167 -235 0
-70 -211 0
-70 -235 0
-211 -235 0
-156 -173 0
-19 -156 0
-156 -180 0
-13 -156 0
-19 -173 0
-173 -180 0
-13 -173 0
-19 -180 0
-13 -19 0
-13 -180 0
-111 -193 0
-161 -193 0
-111 -161 0
-91 -168 0
-91 -174 0
-168 -174 0
-112 -136 0
-64 -66 0
-62 -66 0
-59 -66 0
-62 -64 0
-59 -64 0
-59 -62 0
-92 -95 0
-52 -95 0
-48 -95 0
-52 -92 0
-48 -92 0
-48 -52 0
-91 -193 0
-66 -112 0
-95 -112 0
-66 -95 0
-64 -136 0
-92 -136 0
-64 -92 0
-111 -168 0
-62 -111 0
-52 -111 0
-62 -168 0
-52 -168 0
-52 -62 0
-161 -174 0
-59 -161 0
-48 -161 0
-59 -174 0
-48 -174 0
-48 -59 0
-9 -104 0
-35 -104 0
-33 -104 0
-104 -183 0
-9 -35 0
-9 -33 0
-9 -183 0
-33 -35 0
-35 -183 0
-33 -183 0
-8 -229 0
-159 -229 0
-170 -229 0
-175 -229 0
-8 -159 0
-8 -170 0
-8 -175 0
-159 -170 0
-159 -175 0
-170 -175 0
-169 -186 0
-42 -186 0
-186 -204 0
-42 -169 0
-169 -204 0
-42 -204 0
-100 -123 0
-100 -227 0
-100 -155 0
-123 -227 0
-123 -155 0
-155 -227 0
-65 -192 0
-39 -65 0
-61 -65 0
-58 -65 0
-39 -192 0
-61 -192 0
-58 -192 0
-39 -61 0
-39 -58 0
-58 -61 0
-54 -90 0
-7 -54 0
-51 -54 0
-47 -54 0
-7 -90 0
-51 -90 0
-47 -90 0
-7 -51 0
-7 -47 0
-47 -51 0
-100 -186 0
-104 -229 0
-104 -169 0
-104 -123 0
-65 -104 0
-54 -104 0
-169 -229 0
-123 -229 0
-65 -229 0
-54 -229 0
-123 -169 0
-65 -169 0
-54 -169 0
-65 -123 0
-54 -123 0
-54 -65 0
-8 -9 0
-9 -42 0
-9 -227 0
-9 -192 0
-9 -90 0
-8 -42 0
-8 -227 0
-8 -192 0
-8 -90 0
-42 -227 0
-42 -192 0
-42 -90 0
-192 -227 0
-90 -227 0
-90 -192 0
-35 -159 0
-35 -204 0
-35 -155 0
-35 -39 0
-7 -35 0
-159 -204 0
-155 -159 0
-39 -159 0
-7 -159 0
-155 -204 0
-39 -204 0
-7 -204 0
-39 -155 0
-7 -155 0
-7 -39 0
-33 -170 0
-33 -61 0
-33 -51 0
-61 -170 0
-51 -170 0
-51 -61 0
-175 -183 0
-58 -183 0
-47 -183 0
-58 -175 0
-47 -175 0
-47 -58 0
-125 -177 0
-125 -162 0
-6 -125 0
-125 -147 0
-119 -125 0
-162 -177 0
-6 -177 0
-147 -177 0
-119 -177 0
-6 -162 0
-147 -162 0
-119 -162 0
-6 -147 0
-6 -119 0
-119 -147 0
-142 -160 0
-5 -142 0
-109 -142 0
-3 -142 0
-102 -142 0
-5 -160 0
-109 -160 0
-3 -160 0
-102 -160 0
-5 -109 0
-3 -5 0
-5 -102 0
-3 -109 0
-102 -109 0
-3 -102 0
-94 -132 0
-85 -94 0
-80 -94 0
-2 -94 0
-94 -176 0
-85 -132 0
-80 -132 0
-2 -132 0
-132 -176 0
-80 -85 0
-2 -85 0
-85 -176 0
-2 -80 0
-80 -176 0
-2 -176 0
-1 -220 0
-1 -144 0
-144 -220 0
-32 -68 0
-68 -182 0
-68 -199 0
-68 -209 0
-32 -182 0
-32 -199 0
-32 -209 0
-182 -199 0
-182 -209 0
-199 -209 0
-30 -213 0
-213 -216 0
-213 -228 0
-157 -213 0
-30 -216 0
-30 -228 0
-30 -157 0
-216 -228 0
-157 -216 0
-157 -228 0
-125 -142 0
-94 -125 0
-1 -125 0
-68 -125 0
-125 -213 0
-94 -142 0
-1 -142 0
-68 -142 0
-142 -213 0
-1 -94 0
-68 -94 0
-94 -213 0
-1 -68 0
-1 -213 0
-68 -213 0
-160 -177 0
-132 -177 0
-177 -220 0
-32 -177 0
-30 -177 0
-132 -160 0
-160 -220 0
-32 -160 0
-30 -160 0
-132 -220 0
-32 -132 0
-30 -132 0
-32 -220 0
-30 -220 0
-30 -32 0
-5 -162 0
-85 -162 0
-144 -162 0
-162 -182 0
-162 -216 0
-5 -85 0
-5 -144 0
-5 -182 0
-5 -216 0
-85 -144 0
-85 -182 0
-85 -216 0
-144 -182 0
-144 -216 0
-182 -216 0
-6 -109 0
-6 -80 0
-80 -109 0
-3 -147 0
-2 -147 0
-147 -199 0
-147 -228 0
-2 -3 0
-3 -199 0
-3 -228 0
-2 -199 0
-2 -228 0
-199 -228 0
-102 -119 0
-119 -176 0
-119 -209 0
-119 -157 0
-102 -176 0
-102 -209 0
-102 -157 0
-176 -209 0
-157 -176 0
-157 -209 0
-16 -187 0
-150 -190 0
-150 -197 0
-150 -206 0
-190 -197 0
-190 -206 0
-197 -206 0
-138 -222 0
-138 -225 0
-138 -233 0
-222 -225 0
-222 -233 0
-225 -233 0
-124 -164 0
-97 -124 0
-97 -164 0
-4 -141 0
-63 -141 0
-4 -63 0
-150 -187 0
-138 -187 0
-138 -150 0
-16 -190 0
-16 -222 0
-190 -222 0
-197 -225 0
-124 -197 0
-141 -197 0
-124 -225 0
-141 -225 0
-124 -141 0
-206 -233 0
-164 -206 0
-4 -206 0
-164 -233 0
-4 -233 0
-4 -164 0
-63 -97 0
-78 -148 0
-198 -212 0
-198 -215 0
-212 -215 0
-121 -191 0
-121 -166 0
-166 -191 0
-172 -208 0
-74 -172 0
-71 -172 0
-74 -208 0
-71 -208 0
-71 -74 0
-14 -179 0
-50 -179 0
-179 -234 0
-14 -50 0
-14 -234 0
-50 -234 0
-148 -172 0
-148 -179 0
-172 -179 0
-78 -208 0
-14 -78 0
-14 -208 0
-121 -198 0
-191 -212 0
-74 -212 0
-50 -212 0
-74 -191 0
-50 -191 0
-50 -74 0
-166 -215 0
-71 -215 0
-215 -234 0
-71 -166 0
-166 -234 0
-71 -234 0
-133 -185 0
-101 -133 0
-101 -185 0
-116 -118 0
-116 -236 0
-116 -219 0
-116 -145 0
-87 -116 0
-118 -236 0
-118 -219 0
-118 -145 0
-87 -118 0
-219 -236 0
-145 -236 0
-87 -236 0
-145 -219 0
-87 -219 0
-87 -145 0
-196 -238 0
-224 -238 0
-196 -224 0
-113 -126 0
-110 -126 0
-96 -126 0
-93 -126 0
-122 -126 0
-110 -113 0
-96 -113 0
-93 -113 0
-113 -122 0
-96 -110 0
-93 -110 0
-110 -122 0
-93 -96 0
-96 -122 0
-93 -122 0
-91 -193 0
-125 -177 0
-125 -162 0
-125 -142 0
-125 -160 0
-5 -125 0
-94 -125 0
-125 -132 0
-85 -125 0
-162 -177 0
-142 -177 0
-160 -177 0
-5 -177 0
-94 -177 0
-132 -177 0
-85 -177 0
-142 -162 0
-160 -162 0
-5 -162 0
-94 -162 0
-132 -162 0
-85 -162 0
-142 -160 0
-5 -142 0
-94 -142 0
-132 -142 0
-85 -142 0
-5 -160 0
-94 -160 0
-132 -160 0
-85 -160 0
-5 -94 0
-5 -132 0
-5 -85 0
-94 -132 0
-85 -94 0
-85 -132 0
-16 -187 0
-78 -148 0
-46 -129 0
-43 -129 0
-129 -203 0
-129 -226 0
-129 -153 0
-43 -46 0
-46 -203 0
-46 -226 0
-46 -153 0
-43 -203 0
-43 -226 0
-43 -153 0
-203 -226 0
-153 -203 0
-153 -226 0
-72 -137 0
-83 -137 0
-82 -137 0
-72 -83 0
-72 -82 0
-82 -83 0
-27 -134 0
-26 -134 0
-23 -134 0
-134 -205 0
-114 -134 0
-108 -134 0
-134 -232 0
-127 -134 0
-26 -27 0
-23 -27 0
-27 -205 0
-27 -114 0
-27 -108 0
-27 -232 0
-27 -127 0
-23 -26 0
-26 -205 0
-26 -114 0
-26 -108 0
-26 -232 0
-26 -127 0
-23 -205 0
-23 -114 0
-23 -108 0
-23 -232 0
-23 -127 0
-114 -205 0
-108 -205 0
-205 -232 0
-127 -205 0
-108 -114 0
-114 -232 0
-114 -127 0
-108 -232 0
-108 -127 0
-127 -232 0
-9 -104 0
-35 -104 0
-104 -229 0
-8 -104 0
-104 -159 0
-9 -35 0
-9 -229 0
-8 -9 0
-9 -159 0
-35 -229 0
-8 -35 0
-35 -159 0
-8 -229 0
-159 -229 0
-8 -159 0
-6 -109 0
-6 -80 0
-80 -109 0
-45 -89 0
-56 -89 0
-89 -106 0
-41 -89 0
-77 -89 0
-45 -56 0
-45 -106 0
-41 -45 0
-45 -77 0
-56 -106 0
-41 -56 0
-56 -77 0
-41 -106 0
-77 -106 0
-41 -77 0
-25 -152 0
-25 -120 0
-25 -139 0
-25 -165 0
-25 -171 0
-120 -152 0
-139 -152 0
-152 -165 0
-152 -171 0
-120 -139 0
-120 -165 0
-120 -171 0
-139 -165 0
-139 -171 0
-165 -171 0
-22 -156 0
-22 -167 0
-22 -173 0
-156 -167 0
-156 -173 0
-167 -173 0
-111 -161 0
-111 -168 0
-111 -174 0
-161 -168 0
-161 -174 0
-168 -174 0
-33 -183 0
-33 -170 0
-33 -175 0
-170 -183 0
-175 -183 0
-170 -175 0
-119 -147 0
-3 -147 0
-102 -147 0
-2 -147 0
-147 -176 0
-3 -119 0
-102 -119 0
-2 -119 0
-119 -176 0
-3 -102 0
-2 -3 0
-3 -176 0
-2 -102 0
-102 -176 0
-2 -176 0
-38 -130 0
-37 -130 0
-34 -130 0
-130 -184 0
-130 -149 0
-31 -130 0
-130 -217 0
-130 -221 0
-37 -38 0
-34 -38 0
-38 -184 0
-38 -149 0
-31 -38 0
-38 -217 0
-38 -221 0
-34 -37 0
-37 -184 0
-37 -149 0
-31 -37 0
-37 -217 0
-37 -221 0
-34 -184 0
-34 -149 0
-31 -34 0
-34 -217 0
-34 -221 0
-149 -184 0
-31 -184 0
-184 -217 0
-184 -221 0
-31 -149 0
-149 -217 0
-149 -221 0
-31 -217 0
-31 -221 0
-217 -221 0
-21 -207 0
-20 -207 0
-18 -207 0
-128 -207 0
-188 -207 0
-15 -207 0
-99 -207 0
-146 -207 0
-20 -21 0
-18 -21 0
-21 -128 0
-21 -188 0
-15 -21 0
-21 -99 0
-21 -146 0
-18 -20 0
-20 -128 0
-20 -188 0
-15 -20 0
-20 -99 0
-20 -146 0
-18 -128 0
-18 -188 0
-15 -18 0
-18 -99 0
-18 -146 0
-128 -188 0
-15 -128 0
-99 -128 0
-128 -146 0
-15 -188 0
-99 -188 0
-146 -188 0
-15 -99 0
-15 -146 0
-99 -146 0
-100 -186 0
-1 -220 0
-1 -144 0
-144 -220 0
-150 -190 0
-138 -150 0
-150 -222 0
-138 -190 0
-190 -222 0
-138 -222 0
-40 -194 0
-103 -107 0
-79 -107 0
-107 -200 0
-107 -223 0
-107 -230 0
-79 -103 0
-103 -200 0
-103 -223 0
-103 -230 0
-79 -200 0
-79 -223 0
-79 -230 0
-200 -223 0
-200 -230 0
-223 -230 0
-163 -178 0
-98 -178 0
-98 -163 0
-140 -181 0
-17 -140 0
-140 -201 0
-84 -140 0
-140 -231 0
-17 -181 0
-181 -201 0
-84 -181 0
-181 -231 0
-17 -201 0
-17 -84 0
-17 -231 0
-84 -201 0
-201 -231 0
-84 -231 0
-112 -136 0
-42 -169 0
-169 -204 0
-123 -169 0
-169 -227 0
-155 -169 0
-42 -204 0
-42 -123 0
-42 -227 0
-42 -155 0
-123 -204 0
-204 -227 0
-155 -204 0
-123 -227 0
-123 -155 0
-155 -227 0
-197 -206 0
-197 -225 0
-197 -233 0
-206 -225 0
-206 -233 0
-225 -233 0
-121 -198 0
-36 -67 0
-36 -210 0
-36 -214 0
-36 -158 0
-29 -36 0
-67 -210 0
-67 -214 0
-67 -158 0
-29 -67 0
-210 -214 0
-158 -210 0
-29 -210 0
-158 -214 0
-29 -214 0
-29 -158 0
-19 -70 0
-70 -211 0
-70 -180 0
-70 -235 0
-13 -70 0
-19 -211 0
-19 -180 0
-19 -235 0
-13 -19 0
-180 -211 0
-211 -235 0
-13 -211 0
-180 -235 0
-13 -180 0
-13 -235 0
-212 -215 0
-191 -212 0
-166 -212 0
-191 -215 0
-166 -215 0
-166 -191 0
-44 -88 0
-28 -88 0
-57 -88 0
-88 -105 0
-55 -88 0
-28 -44 0
-44 -57 0
-44 -105 0
-44 -55 0
-28 -57 0
-28 -105 0
-28 -55 0
-57 -105 0
-55 -57 0
-55 -105 0
-12 -131 0
-11 -12 0
-12 -69 0
-12 -24 0
-12 -151 0
-11 -131 0
-69 -131 0
-24 -131 0
-131 -151 0
-11 -69 0
-11 -24 0
-11 -151 0
-24 -69 0
-69 -151 0
-24 -151 0
-32 -68 0
-68 -182 0
-68 -213 0
-30 -68 0
-68 -216 0
-32 -182 0
-32 -213 0
-30 -32 0
-32 -216 0
-182 -213 0
-30 -182 0
-182 -216 0
-30 -213 0
-213 -216 0
-30 -216 0
-172 -208 0
-172 -179 0
-14 -172 0
-179 -208 0
-14 -208 0
-14 -179 0
-115 -117 0
-115 -237 0
-115 -218 0
-115 -143 0
-86 -115 0
-117 -237 0
-117 -218 0
-117 -143 0
-86 -117 0
-218 -237 0
-143 -237 0
-86 -237 0
-143 -218 0
-86 -218 0
-86 -143 0
-10 -239 0
-10 -189 0
-10 -195 0
-189 -239 0
-195 -239 0
-189 -195 0
-64 -66 0
-66 -95 0
-66 -92 0
-64 -95 0
-64 -92 0
-92 -95 0
-65 -192 0
-39 -65 0
-54 -65 0
-65 -90 0
-7 -65 0
-39 -192 0
-54 -192 0
-90 -192 0
-7 -192 0
-39 -54 0
-39 -90 0
-7 -39 0
-54 -90 0
-7 -54 0
-7 -90 0
-124 -164 0
-124 -141 0
-4 -124 0
-141 -164 0
-4 -164 0
-4 -141 0
-76 -135 0
-60 -202 0
-154 -202 0
-49 -202 0
-60 -154 0
-49 -60 0
-49 -154 0
-73 -75 0
-53 -75 0
-75 -81 0
-53 -73 0
-73 -81 0
-53 -81 0
-59 -62 0
-52 -62 0
-48 -62 0
-52 -59 0
-48 -59 0
-48 -52 0
-58 -61 0
-51 -61 0
-47 -61 0
-51 -58 0
-47 -58 0
-47 -51 0
-199 -209 0
-199 -228 0
-157 -199 0
-209 -228 0
-157 -209 0
-157 -228 0
-63 -97 0
-71 -74 0
-50 -74 0
-74 -234 0
-50 -71 0
-71 -234 0
-50 -234 0
